Route #1: 12 103 5 76 9 34 74 130 50 62 38 77 46
Route #2: 75 105 30 104 118 16 131 83 2 100 126
Route #3: 27 81 1 3 121 115 36 85 35 20 59 101 51
Route #4: 102 57 138 48 112 60 8 26 113 140 82 31 28 116 70
Route #5: 68 6 132 14 58 95 25 133 110 18 55
Route #6: 61 7 69 23 98 24 97 43 86 96 67 13 134
Route #7: 99 114 120 80 22 119 32 127 53 129 29 128 84 79 21 78
Route #8: 11 49 90 108 37 63 17 145 144 56 47 139
Route #9: 147 137 44 52 15 45 91 72 33 124 122 123 71 10
Route #10: 54 39 89 117 73 106 125 107 65 150 148 87 142
Route #11: 149 4 111 66 41 94 19 135 143 109
Route #12: 92 42 93 64 88 40 136 141 146
Cost 1300.7
